24
1 0 31
2 0 2
2 1 12
3 0 12
3 1 33
3 2 31
4 0 16
4 1 9
4 2 1
4 3 11
5 0 29
5 1 37
5 2 18
5 3 13
5 4 24
6 0 18
6 1 16
6 2 42
6 3 10
6 4 3
6 5 21
7 0 7
7 1 18
7 2 5
7 3 16
7 4 4
7 5 10
7 6 33
8 0 20
8 1 36
8 2 32
8 3 28
8 4 7
8 5 3
8 6 12
8 7 3
9 0 24
9 1 42
9 2 3
9 3 17
9 4 25
9 5 43
9 6 5
9 7 11
9 8 27
10 0 10
10 1 20
10 2 23
10 3 22
10 4 23
10 5 2
10 6 4
10 7 29
10 8 13
10 9 26
11 0 38
11 1 1
11 2 35
11 3 2
11 4 33
11 5 15
11 6 34
11 7 15
11 8 12
11 9 38
11 10 2
12 0 28
12 1 10
12 2 41
12 3 28
12 4 27
12 5 31
12 6 37
12 7 6
12 8 18
12 9 42
12 10 28
12 11 12
13 0 41
13 1 11
13 2 11
13 3 2
13 4 4
13 5 23
13 6 3
13 7 3
13 8 6
13 9 33
13 10 12
13 11 5
13 12 19
14 0 5
14 1 2
14 2 32
14 3 26
14 4 5
14 5 33
14 6 10
14 7 35
14 8 1
14 9 38
14 10 11
14 11 42
14 12 21
14 13 29
15 0 31
15 1 12
15 2 20
15 3 28
15 4 14
15 5 15
15 6 3
15 7 33
15 8 16
15 9 24
15 10 33
15 11 3
15 12 18
15 13 24
15 14 35
16 0 12
16 1 1
16 2 21
16 3 10
16 4 20
16 5 26
16 6 16
16 7 26
16 8 36
16 9 12
16 10 18
16 11 16
16 12 10
16 13 37
16 14 29
16 15 20
17 0 43
17 1 37
17 2 37
17 3 25
17 4 10
17 5 43
17 6 18
17 7 12
17 8 17
17 9 4
17 10 12
17 11 26
17 12 4
17 13 10
17 14 31
17 15 17
17 16 18
18 0 37
18 1 10
18 2 40
18 3 4
18 4 18
18 5 27
18 6 37
18 7 14
18 8 37
18 9 16
18 10 16
18 11 1
18 12 34
18 13 3
18 14 22
18 15 6
18 16 17
18 17 38
19 0 21
19 1 35
19 2 16
19 3 24
19 4 29
19 5 37
19 6 9
19 7 2
19 8 39
19 9 36
19 10 42
19 11 35
19 12 32
19 13 18
19 14 5
19 15 38
19 16 1
19 17 8
19 18 42
20 0 21
20 1 12
20 2 39
20 3 19
20 4 2
20 5 6
20 6 29
20 7 13
20 8 25
20 9 8
20 10 36
20 11 22
20 12 38
20 13 2
20 14 26
20 15 26
20 16 40
20 17 10
20 18 16
20 19 33
21 0 28
21 1 16
21 2 17
21 3 17
21 4 30
21 5 29
21 6 24
21 7 38
21 8 43
21 9 42
21 10 42
21 11 19
21 12 20
21 13 13
21 14 38
21 15 35
21 16 19
21 17 12
21 18 43
21 19 12
21 20 29
22 0 21
22 1 20
22 2 20
22 3 9
22 4 31
22 5 36
22 6 25
22 7 28
22 8 33
22 9 32
22 10 20
22 11 4
22 12 43
22 13 17
22 14 3
22 15 35
22 16 13
22 17 36
22 18 31
22 19 27
22 20 23
22 21 32
23 0 5
23 1 23
23 2 43
23 3 8
23 4 35
23 5 16
23 6 28
23 7 20
23 8 33
23 9 7
23 10 20
23 11 6
23 12 7
23 13 16
23 14 1
23 15 39
23 16 28
23 17 39
23 18 21
23 19 29
23 20 18
23 21 30
23 22 38
